NAME : rd100
TYPE : OP
DIMENSION : 100
COST_LIMIT : 3955
ROUTE_NODES : 61
ROUTE_SCORE : 61
ROUTE_COST : 3949
NODE_SEQUENCE_SECTION
1
15
63
86
97
67
13
49
21
75
82
85
14
12
4
32
9
26
74
20
78
33
10
27
92
73
50
46
56
37
28
93
77
95
59
76
88
84
31
66
98
94
6
79
53
99
47
57
36
11
61
5
81
80
65
83
51
90
69
8
60
-1
DEPOT_SECTION
1
-1
EOF
